Route #1:
Route #2: 25 17 8 22 11 28 26 10
Route #3: 21 6
Route #4: 2 18 19 1
Route #5: 13
Route #6: 14 16 27 24
Route #7: 3 29 5
Route #8: 23
Route #9: 4 15 9 12 7 20
Route #10: 30 31

Cost: 2172.308762659173
